c Maximum weighted clique instances generated from exactcolors.
c cutoff: 5302428.
c A clique of value > scalef (5302428) defines an improving stable sets for coloring.
p edge 23 137
e 1 6
e 1 11
e 1 12
e 1 17
e 1 22
e 1 23
e 2 7
e 2 11
e 2 13
e 2 18
e 2 22
e 2 23
e 3 8
e 3 11
e 3 14
e 3 19
e 3 22
e 3 23
e 4 9
e 4 11
e 4 15
e 4 20
e 4 22
e 4 23
e 5 10
e 5 11
e 5 16
e 5 21
e 5 22
e 5 23
e 6 7
e 6 8
e 6 9
e 6 10
e 6 12
e 6 17
e 6 18
e 6 19
e 6 20
e 6 21
e 6 23
e 7 8
e 7 9
e 7 10
e 7 13
e 7 17
e 7 18
e 7 19
e 7 20
e 7 21
e 7 23
e 8 9
e 8 10
e 8 14
e 8 17
e 8 18
e 8 19
e 8 20
e 8 21
e 8 23
e 9 10
e 9 15
e 9 17
e 9 18
e 9 19
e 9 20
e 9 21
e 9 23
e 10 16
e 10 17
e 10 18
e 10 19
e 10 20
e 10 21
e 10 23
e 11 12
e 11 13
e 11 14
e 11 15
e 11 16
e 11 22
e 11 23
e 12 13
e 12 14
e 12 15
e 12 16
e 12 17
e 12 18
e 12 19
e 12 20
e 12 21
e 12 22
e 13 14
e 13 15
e 13 16
e 13 17
e 13 18
e 13 19
e 13 20
e 13 21
e 13 22
e 14 15
e 14 16
e 14 17
e 14 18
e 14 19
e 14 20
e 14 21
e 14 22
e 15 16
e 15 17
e 15 18
e 15 19
e 15 20
e 15 21
e 15 22
e 16 17
e 16 18
e 16 19
e 16 20
e 16 21
e 16 22
e 17 18
e 17 19
e 17 20
e 17 21
e 17 22
e 18 19
e 18 20
e 18 21
e 18 22
e 19 20
e 19 21
e 19 22
e 20 21
e 20 22
e 21 22
n 1 3426184
n 2 3426184
n 3 3426184
n 4 3426184
n 5 3426184
n 6 856546
n 7 856546
n 8 856546
n 9 856546
n 10 856546
n 11 856546
n 12 815758
n 13 815758
n 14 815758
n 15 815758
n 16 815758
n 17 203939
n 18 203939
n 19 203939
n 20 203939
n 21 203939
n 22 203939
n 23 1019697
